

n = 30;
x = [3, 6, 0, 8, 3, 4, 6, 2, 8, 4, 3, 1, 6, 7, 7, 5, 5, 1, 3, 5, 8, 3, 0, 2, 9, 10, 0, 5, 0, 1];
y = [7, 2, 3, 6, 2, 9, 0, 5, 5, 8, 2, 4, 1, 9, 7, 6, 3, 6, 2, 7, 7, 8, 3, 3, 0, 5, 2, 4, 1, 9];


limit = 100; 

m = 6;
